Version identifier: 22.1.0.0 | 2022-03-09 | 1a383f8ce
CPXPARAM_Read_DataCheck                          1
CPXPARAM_Threads                                 1
CPXPARAM_TimeLimit                               3600
Tried aggregator 2 times.
MIP Presolve eliminated 757 rows and 90 columns.
MIP Presolve modified 3569 coefficients.
Aggregator did 21 substitutions.
Reduced MIP has 653 rows, 129 columns, and 3577 nonzeros.
Reduced MIP has 85 binaries, 0 generals, 0 SOSs, and 0 indicators.
Presolve time = 0.02 sec. (7.49 ticks)
Found incumbent of value 90.527012 after 0.04 sec. (10.63 ticks)
Probing fixed 4 vars, tightened 0 bounds.
Probing time = 0.01 sec. (1.60 ticks)
Tried aggregator 1 time.
Detecting symmetries...
MIP Presolve eliminated 9 rows and 4 columns.
Reduced MIP has 644 rows, 125 columns, and 3516 nonzeros.
Reduced MIP has 81 binaries, 0 generals, 0 SOSs, and 0 indicators.
Presolve time = 0.01 sec. (1.81 ticks)
Probing time = 0.00 sec. (1.55 ticks)
Clique table members: 448.
MIP emphasis: balance optimality and feasibility.
MIP search method: dynamic search.
Parallel mode: none, using 1 thread.
Root relaxation solution time = 0.01 sec. (2.98 ticks)

        Nodes                                         Cuts/
   Node  Left     Objective  IInf  Best Integer    Best Bound    ItCnt     Gap

*     0+    0                           90.5270       65.8979            27.21%
      0     0       65.8979    34       90.5270       65.8979      119   27.21%
      0     0       65.9106    34       90.5270      Cuts: 45      260   27.19%
      0     0       65.9386    25       90.5270     Cuts: 261      337   27.16%
      0     0       65.9604    39       90.5270     Cuts: 169      407   27.14%
      0     0       65.9991    44       90.5270      Cuts: 78      470   27.09%
      0     0       66.0335    41       90.5270      Cuts: 83      511   27.06%
Detecting symmetries...
      0     0       66.0739    44       90.5270      Cuts: 99      559   27.01%
      0     0       66.0836    41       90.5270     Cuts: 107      577   27.00%
      0     0       66.0888    40       90.5270      Cuts: 24      604   27.00%
      0     0       66.0904    35       90.5270      Cuts: 42      628   26.99%
*     0+    0                           83.0922       66.0904            20.46%
      0     0  -1.00000e+75     0       83.0922       66.0904      628   20.46%
Detecting symmetries...
      0     2       66.0925    34       83.0922       66.1004      628   20.45%
Elapsed time = 0.38 sec. (133.85 ticks, tree = 0.01 MB, solutions = 2)
*   169    34      integral     0       81.7790       69.4331     4447   15.10%
*   170    31      integral     0       80.0635       69.4331     4453   13.28%
    315    68       72.3816    19       80.0635       72.3569     7530    9.63%
*   320    59      integral     0       77.3937       72.3569     7582    6.51%
*   350    20      integral     0       73.3691       72.3872     7945    1.34%
*   366    22      integral     0       73.2505       72.3966     8130    1.17%
*   367    19      integral     0       73.0552       72.3966     8140    0.90%

GUB cover cuts applied:  10
Clique cuts applied:  5
Cover cuts applied:  40
Implied bound cuts applied:  71
Flow cuts applied:  2
Mixed integer rounding cuts applied:  42
Zero-half cuts applied:  1

Root node processing (before b&c):
  Real time             =    0.38 sec. (133.86 ticks)
Sequential b&c:
  Real time             =    0.62 sec. (275.80 ticks)
                          ------------
Total (root+branch&cut) =    1.00 sec. (409.67 ticks)
